ITEM = 1..18;
capacity1 = 192;
capacity2 = 209;
capacity3 = 219;
profits = [971, 338, 656, 639, 578, 507, 496, 135, 981, 841, 62, 934, 829, 192, 128, 168, 47, 81];
weights = [23, 28, 42, 19, 49, 88, 88, 27, 35, 39, 92, 12, 39, 26, 43, 93, 27, 96];
